Name: Ing0203-2
Courses: 82
Rooms: 16
Days: 5
Periods_per_day: 5
Curricula: 70
Constraints: 513

COURSES:
c0131 t000 3 2 150
c0211 t001 3 3 147
c0095 t002 3 3 89
c0152 t003 3 3 150
c0103 t004 3 3 114
c0111 t005 3 3 114
c0113 t006 3 3 234
c0115 t007 3 3 302
c0119 t008 3 3 60
c0127 t009 3 3 89
c0007 t010 3 3 17
c0015 t011 3 3 23
c0019 t012 3 3 46
c0020 t013 3 3 23
c0023 t014 3 3 124
c0080 t015 3 3 23
c0088 t016 5 4 144
c0044 t017 3 3 86
c0110 t018 3 3 195
c0058 t018 3 3 149
c0061 t019 3 3 201
c0066 t020 3 3 33
c0074 t021 3 3 75
c0213 t022 3 3 147
c0219 t023 3 2 90
c0178 t024 3 3 159
c0186 t025 3 3 175
c0193 t026 3 3 84
c0108 t027 3 3 89
c0056 t027 3 3 86
c0195 t027 3 3 159
c0206 t028 3 3 159
c0467 t029 3 3 37
c0129 t030 3 2 150
c0155 t031 7 1 50
c0156 t032 7 1 50
c0157 t033 7 1 50
c0252 t034 3 2 138
c0266 t035 3 2 169
c0238 t036 3 3 147
c0279 t036 3 3 128
c0076 t037 3 3 46
c0470 t037 3 3 16
c0009 t038 3 3 17
c0217 t038 3 3 107
c0230 t039 3 3 124
c0201 t040 3 2 175
c0552 t041 3 3 1
c0480 t042 3 3 31
c0054 t043 5 4 168
c0455 t044 3 3 4
c0602 t045 3 3 2
c0559 t046 3 3 1
c0069 t047 3 3 86
c0295 t048 5 4 4
c0288 t049 3 3 58
c0297 t050 5 4 11
c0302 t051 3 3 72
c0311 t038 3 3 21
c0313 t052 3 3 18
c0314 t053 3 3 4
c0310 t054 3 3 237
c0315 t054 3 3 23
c0316 t039 3 3 45
c0298 t055 5 4 86
c0304 t056 5 4 23
c0346 t057 5 4 270
c0379 t040 3 3 80
c0366 t058 5 4 41
c0391 t059 3 3 100
c0386 t060 3 3 296
c0638 t061 4 3 273
c0322 t062 5 4 61
c0323 t063 3 3 165
c0326 t064 3 3 91
c0327 t046 3 3 150
c0336 t065 3 2 66
c0337 t066 3 3 64
c0307 t067 5 4 23
c0633 t068 5 4 214
c0368 t069 3 3 31
c0388 t070 5 4 69

ROOMS:
36	42
37	42
38	48
31	50
27	90
B	216
D	216
E	216
F	216
G	216
A	312
L	336
50	80
52	90
DS1	90
DS2	90

CURRICULA:
q000  4 c0129 c0131 c0152 c0157 
q001  4 c0129 c0131 c0152 c0155 
q002  4 c0129 c0131 c0152 c0156 
q003  3 c0211 c0213 c0238 
q004  3 c0230 c0023 c0217 
q005  4 c0007 c0009 c0230 c0023 
q006  4 c0019 c0310 c0088 c0080 
q007  4 c0015 c0019 c0020 c0368 
q009  4 c0217 c0219 c0023 c0230 
q010  4 c0310 c0633 c0302 c0088 
q011  3 c0310 c0633 c0298 
q012  3 c0044 c0056 c0069 
q013  3 c0266 c0054 c0058 
q014  4 c0323 c0061 c0327 c0066 
q015  4 c0323 c0061 c0327 c0074 
q016  4 c0323 c0061 c0327 c0076 
q017  4 c0323 c0061 c0327 c0326 
q018  3 c0178 c0195 c0206 
q019  4 c0252 c0346 c0110 c0193 
q020  3 c0186 c0638 c0201 
q021  4 c0186 c0638 c0201 c0467 
q022  4 c0186 c0638 c0201 c0386 
q024  4 c0252 c0058 c0266 c0054 
q025  3 c0186 c0201 c0326 
q026  4 c0186 c0201 c0326 c0470 
q027  4 c0186 c0201 c0326 c0279 
q028  3 c0095 c0108 c0127 
q029  4 c0103 c0110 c0111 c0113 
q030  4 c0386 c0115 c0391 c0113 
q031  4 c0386 c0115 c0119 c0113 
q033  3 c0304 c0310 c0633 
q034  3 c0307 c0310 c0633 
q035  3 c0310 c0311 c0633 
q036  4 c0088 c0288 c0302 c0313 
q037  4 c0088 c0288 c0313 c0316 
q038  3 c0088 c0288 c0315 
q039  3 c0088 c0288 c0297 
q040  3 c0088 c0288 c0316 
q041  4 c0088 c0288 c0315 c0295 
q042  4 c0088 c0288 c0315 c0297 
q043  4 c0088 c0288 c0315 c0313 
q044  4 c0088 c0288 c0315 c0314 
q045  4 c0322 c0061 c0336 c0337 
q046  4 c0323 c0326 c0327 c0074 
q047  4 c0323 c0279 c0074 c0480 
q048  6 c0323 c0327 c0076 c0279 c0074 c0480 
q049  2 c0346 c0115 
q050  3 c0346 c0115 c0061 
q051  3 c0346 c0391 c0115 
q052  4 c0386 c0279 c0379 c0638 
q053  5 c0386 c0279 c0379 c0638 c0054 
q054  5 c0386 c0279 c0379 c0638 c0368 
q055  5 c0386 c0279 c0379 c0638 c0316 
q056  5 c0386 c0279 c0379 c0638 c0366 
q057  3 c0346 c0266 c0115 
q060  3 c0386 c0388 c0638 
q061  4 c0386 c0388 c0316 c0638 
q062  5 c0336 c0337 c0054 c0326 c0066 
q063  5 c0336 c0337 c0480 c0054 c0066 
q064  5 c0336 c0337 c0054 c0076 c0066 
q065  5 c0346 c0366 c0388 c0193 c0638 
q066  4 c0346 c0366 c0388 c0316 
q067  3 c0346 c0366 c0388 
q068  2 c0304 c0288 
q069  4 c0552 c0307 c0467 c0559 
q070  3 c0307 c0288 c0304 
q071  4 c0115 c0279 c0455 c0386 
q072  4 c0115 c0279 c0455 c0467 
q073  4 c0455 c0336 c0602 c0470 
q074  4 c0279 c0455 c0336 c0602 

UNAVAILABILITY_CONSTRAINTS:
c0211 0 2
c0211 0 3
c0211 0 4
c0211 1 2
c0211 1 3
c0211 1 4
c0211 2 2
c0211 2 3
c0211 2 4
c0211 3 2
c0211 3 3
c0211 3 4
c0211 4 2
c0211 4 3
c0211 4 4
c0095 0 2
c0095 0 3
c0095 0 4
c0095 1 2
c0095 1 3
c0095 1 4
c0095 2 2
c0095 2 3
c0095 2 4
c0095 3 0
c0095 3 1
c0095 3 2
c0095 3 3
c0095 3 4
c0095 4 0
c0095 4 1
c0095 4 2
c0095 4 3
c0095 4 4
c0103 0 2
c0103 1 2
c0103 2 2
c0103 3 2
c0103 4 2
c0111 0 0
c0111 1 0
c0111 2 0
c0111 3 0
c0111 4 0
c0115 0 0
c0115 0 1
c0115 3 0
c0115 3 1
c0115 3 2
c0115 3 3
c0115 3 4
c0115 4 0
c0115 4 1
c0115 4 2
c0115 4 3
c0115 4 4
c0119 0 0
c0119 0 4
c0119 1 0
c0119 1 4
c0119 2 0
c0119 3 0
c0119 3 4
c0119 4 0
c0127 0 2
c0127 0 3
c0127 0 4
c0127 1 2
c0127 1 3
c0127 1 4
c0127 2 2
c0127 2 3
c0127 2 4
c0127 3 2
c0127 3 3
c0127 3 4
c0127 4 2
c0127 4 3
c0127 4 4
c0019 0 0
c0019 0 1
c0019 0 2
c0019 0 3
c0019 0 4
c0020 0 0
c0020 0 1
c0020 1 0
c0020 2 0
c0020 3 0
c0020 4 0
c0020 4 3
c0020 4 4
c0023 0 0
c0023 0 1
c0023 0 2
c0023 0 3
c0023 0 4
c0023 4 2
c0023 4 3
c0023 4 4
c0080 0 2
c0080 0 3
c0080 0 4
c0080 1 4
c0080 2 2
c0080 2 4
c0080 3 4
c0080 4 4
c0088 0 0
c0088 1 0
c0088 2 0
c0088 3 0
c0088 4 0
c0044 0 2
c0044 0 3
c0044 0 4
c0044 1 2
c0044 1 3
c0044 1 4
c0044 2 2
c0044 2 3
c0044 2 4
c0044 3 2
c0044 3 3
c0044 3 4
c0044 4 0
c0044 4 1
c0044 4 2
c0044 4 3
c0044 4 4
c0110 0 0
c0110 0 1
c0110 1 0
c0110 2 0
c0110 3 0
c0110 4 0
c0110 4 1
c0110 4 2
c0110 4 3
c0110 4 4
c0058 0 0
c0058 0 1
c0058 1 0
c0058 2 0
c0058 3 0
c0058 4 0
c0058 4 1
c0058 4 2
c0058 4 3
c0058 4 4
c0061 0 0
c0061 0 1
c0061 0 2
c0061 0 3
c0061 0 4
c0061 4 2
c0061 4 3
c0061 4 4
c0074 1 1
c0074 1 2
c0074 1 3
c0074 1 4
c0074 2 1
c0074 2 2
c0074 2 3
c0074 2 4
c0213 0 0
c0213 0 1
c0213 0 2
c0213 0 3
c0213 0 4
c0213 1 0
c0213 1 1
c0213 1 2
c0213 1 3
c0213 1 4
c0213 2 2
c0213 2 3
c0213 2 4
c0213 3 2
c0213 3 3
c0213 3 4
c0213 4 2
c0213 4 3
c0213 4 4
c0219 3 0
c0219 3 1
c0219 3 2
c0219 3 3
c0219 3 4
c0219 4 2
c0219 4 3
c0219 4 4
c0178 0 2
c0178 0 3
c0178 0 4
c0178 1 2
c0178 1 3
c0178 1 4
c0178 2 2
c0178 2 3
c0178 2 4
c0178 3 2
c0178 3 3
c0178 3 4
c0178 4 2
c0178 4 3
c0178 4 4
c0186 0 0
c0186 0 1
c0186 0 2
c0186 0 3
c0186 0 4
c0186 1 0
c0186 1 1
c0186 1 2
c0186 1 3
c0186 1 4
c0186 4 4
c0193 0 0
c0193 0 1
c0193 0 2
c0108 0 2
c0108 0 3
c0108 0 4
c0108 1 2
c0108 1 3
c0108 1 4
c0108 2 2
c0108 2 3
c0108 2 4
c0108 3 2
c0108 3 3
c0108 3 4
c0108 4 2
c0108 4 3
c0108 4 4
c0056 0 2
c0056 0 3
c0056 0 4
c0056 1 2
c0056 1 3
c0056 1 4
c0056 2 2
c0056 2 3
c0056 2 4
c0056 3 2
c0056 3 3
c0056 3 4
c0056 4 2
c0056 4 3
c0056 4 4
c0206 0 2
c0206 0 3
c0206 0 4
c0206 1 2
c0206 1 3
c0206 1 4
c0206 2 2
c0206 2 3
c0206 2 4
c0206 3 2
c0206 3 3
c0206 3 4
c0206 4 2
c0206 4 3
c0206 4 4
c0252 3 2
c0252 3 3
c0252 3 4
c0252 4 0
c0252 4 1
c0252 4 2
c0252 4 3
c0252 4 4
c0266 0 0
c0266 0 1
c0266 0 2
c0266 2 3
c0266 2 4
c0266 3 0
c0266 3 1
c0266 3 2
c0266 3 3
c0266 3 4
c0266 4 0
c0266 4 1
c0266 4 2
c0266 4 3
c0266 4 4
c0238 0 2
c0238 0 3
c0238 0 4
c0238 1 2
c0238 1 3
c0238 1 4
c0238 2 2
c0238 2 3
c0238 2 4
c0238 3 2
c0238 3 3
c0238 3 4
c0238 4 2
c0238 4 3
c0238 4 4
c0076 0 0
c0076 1 0
c0076 2 0
c0076 3 0
c0076 4 0
c0470 0 0
c0470 1 0
c0470 2 0
c0470 3 0
c0470 4 0
c0230 0 2
c0230 1 2
c0230 2 0
c0230 2 1
c0230 2 2
c0230 4 2
c0230 4 3
c0230 4 4
c0054 0 0
c0054 4 1
c0054 4 2
c0054 4 3
c0054 4 4
c0602 0 2
c0602 1 2
c0602 2 2
c0602 3 0
c0602 3 1
c0602 3 2
c0602 3 3
c0602 3 4
c0602 4 0
c0602 4 1
c0602 4 2
c0602 4 3
c0602 4 4
c0559 0 0
c0559 0 1
c0559 0 2
c0559 0 3
c0559 0 4
c0559 1 0
c0559 2 0
c0559 4 0
c0069 0 2
c0069 0 3
c0069 0 4
c0069 1 2
c0069 1 3
c0069 1 4
c0069 2 2
c0069 2 3
c0069 2 4
c0069 3 2
c0069 3 3
c0069 3 4
c0069 4 2
c0069 4 3
c0069 4 4
c0288 0 0
c0288 0 1
c0288 0 2
c0288 0 3
c0288 0 4
c0288 1 0
c0288 1 1
c0288 1 2
c0297 4 0
c0297 4 1
c0297 4 2
c0297 4 3
c0302 0 0
c0302 0 1
c0302 0 2
c0302 0 3
c0302 0 4
c0313 2 2
c0313 2 3
c0313 2 4
c0314 0 2
c0314 1 2
c0314 2 2
c0314 3 2
c0314 4 2
c0316 0 2
c0316 1 2
c0316 2 0
c0316 2 1
c0316 2 2
c0316 4 2
c0316 4 3
c0316 4 4
c0298 0 0
c0298 0 1
c0298 0 2
c0298 4 0
c0298 4 1
c0298 4 2
c0298 4 3
c0298 4 4
c0304 3 4
c0346 4 0
c0346 4 1
c0346 4 2
c0346 4 3
c0346 4 4
c0366 0 0
c0366 1 0
c0366 2 0
c0366 4 0
c0366 4 1
c0366 4 2
c0366 4 3
c0366 4 4
c0391 0 0
c0391 0 1
c0391 0 2
c0391 0 3
c0391 0 4
c0391 1 0
c0391 1 1
c0391 1 2
c0386 1 2
c0386 1 3
c0386 1 4
c0386 2 0
c0386 2 1
c0386 2 2
c0386 2 3
c0386 2 4
c0386 4 2
c0386 4 3
c0386 4 4
c0638 0 4
c0638 2 2
c0638 2 3
c0638 2 4
c0638 3 4
c0638 4 2
c0638 4 3
c0638 4 4
c0322 0 0
c0322 1 0
c0322 3 0
c0322 4 0
c0322 4 1
c0322 4 2
c0322 4 3
c0322 4 4
c0323 0 0
c0323 0 1
c0323 0 2
c0323 0 3
c0323 0 4
c0323 4 0
c0323 4 1
c0323 4 2
c0323 4 3
c0323 4 4
c0326 0 0
c0326 0 1
c0326 0 2
c0326 0 3
c0326 0 4
c0326 1 0
c0326 1 1
c0326 1 2
c0326 1 3
c0326 1 4
c0327 0 0
c0327 0 1
c0327 0 2
c0327 0 3
c0327 0 4
c0327 1 0
c0327 2 0
c0327 4 0
c0327 4 3
c0327 4 4
c0336 1 2
c0336 1 3
c0336 1 4
c0336 2 0
c0336 2 1
c0336 2 2
c0336 2 3
c0336 2 4
c0336 3 0
c0336 3 1
c0336 3 2
c0336 3 3
c0336 3 4
c0336 4 0
c0336 4 1
c0336 4 2
c0336 4 3
c0336 4 4
c0337 0 0
c0337 0 1
c0337 0 2
c0337 0 3
c0337 4 1
c0337 4 2
c0337 4 3
c0337 4 4
c0368 0 0
c0368 2 4
c0368 4 4

END.
